
Gurobi 7.5.2 (linux64) logging started Thu Mar 21 01:06:49 2019

Changed value of parameter LogFile to /home/aniket/python_scripts/Plasmids/exp/2019-03-21__iterative_with_questionable/output/sample_116/1.1.1/nplasmids_1/MILP/m.log
   Prev: gurobi.log  Default: 
Changed value of parameter TimeLimit to 2400.0
   Prev: 1e+100  Min: 0.0  Max: 1e+100  Default: 1e+100
Optimize a model with 3359 rows, 976 columns and 13914 nonzeros
Variable types: 259 continuous, 717 integer (373 binary)
Coefficient statistics:
  Matrix range     [2e-01, 1e+06]
  Objective range  [3e-04, 6e+05]
  Bounds range     [1e+00, 1e+00]
  RHS range        [8e-01, 1e+06]
Presolve removed 2700 rows and 605 columns
Presolve time: 0.02s
Presolved: 659 rows, 371 columns, 2181 nonzeros
Variable types: 79 continuous, 292 integer (214 binary)
Found heuristic solution: objective -40147.25654

Root relaxation: objective -1.303869e+05, 468 iterations, 0.01 seconds

    Nodes    |    Current Node    |     Objective Bounds      |     Work
 Expl Unexpl |  Obj  Depth IntInf | Incumbent    BestBd   Gap | It/Node Time

     0     0 -130386.92    0   76 -40147.257 -130386.92   225%     -    0s
     0     0 -128230.27    0   23 -40147.257 -128230.27   219%     -    0s
H    0     0                    -127014.1437 -128230.27  0.96%     -    0s
     0     0 -127045.10    0    2 -127014.14 -127045.10  0.02%     -    0s
     0     0 -127032.06    0    2 -127014.14 -127032.06  0.01%     -    0s
     0     0     cutoff    0      -127014.14 -127014.14  0.00%     -    0s

Explored 1 nodes (677 simplex iterations) in 0.05 seconds
Thread count was 4 (of 4 available processors)

Solution count 2: -127014 -40147.3 

Optimal solution found (tolerance 1.00e-04)
Best objective -1.270141436577e+05, best bound -1.270141436577e+05, gap 0.0000%

Gurobi 7.5.2 (linux64) logging started Thu Mar 21 01:06:49 2019

Changed value of parameter LogFile to /home/aniket/python_scripts/Plasmids/exp/2019-03-21__iterative_with_questionable/output/sample_116/1.1.1/nplasmids_1/MILP/m.log
   Prev: gurobi.log  Default: 
Changed value of parameter TimeLimit to 2400.0
   Prev: 1e+100  Min: 0.0  Max: 1e+100  Default: 1e+100
Optimize a model with 2999 rows, 871 columns and 11722 nonzeros
Variable types: 232 continuous, 639 integer (331 binary)
Coefficient statistics:
  Matrix range     [1e-01, 1e+06]
  Objective range  [3e-04, 2e+05]
  Bounds range     [1e+00, 1e+00]
  RHS range        [1e-01, 1e+06]
Presolve removed 2348 rows and 503 columns
Presolve time: 0.01s
Presolved: 651 rows, 368 columns, 2155 nonzeros
Variable types: 78 continuous, 290 integer (213 binary)
Found heuristic solution: objective -5861.874570

Root relaxation: objective -5.675046e+04, 161 iterations, 0.00 seconds

    Nodes    |    Current Node    |     Objective Bounds      |     Work
 Expl Unexpl |  Obj  Depth IntInf | Incumbent    BestBd   Gap | It/Node Time

*    0     0               0    -56750.46224 -56750.462  0.00%     -    0s

Explored 0 nodes (161 simplex iterations) in 0.02 seconds
Thread count was 4 (of 4 available processors)

Solution count 2: -56750.5 -5861.87 
No other solutions better than -56750.5

Optimal solution found (tolerance 1.00e-04)
Best objective -5.675046224466e+04, best bound -5.675046224466e+04, gap 0.0000%

Gurobi 7.5.2 (linux64) logging started Thu Mar 21 01:06:49 2019

Changed value of parameter LogFile to /home/aniket/python_scripts/Plasmids/exp/2019-03-21__iterative_with_questionable/output/sample_116/1.1.1/nplasmids_1/MILP/m.log
   Prev: gurobi.log  Default: 
Changed value of parameter TimeLimit to 2400.0
   Prev: 1e+100  Min: 0.0  Max: 1e+100  Default: 1e+100
Optimize a model with 2999 rows, 871 columns and 11722 nonzeros
Variable types: 232 continuous, 639 integer (331 binary)
Coefficient statistics:
  Matrix range     [1e-01, 1e+06]
  Objective range  [3e-04, 2e+05]
  Bounds range     [1e+00, 1e+00]
  RHS range        [1e-01, 1e+06]
Presolve removed 2345 rows and 503 columns
Presolve time: 0.01s
Presolved: 654 rows, 368 columns, 2165 nonzeros
Variable types: 78 continuous, 290 integer (213 binary)
Found heuristic solution: objective -5861.874570

Root relaxation: objective -5.435428e+04, 275 iterations, 0.00 seconds

    Nodes    |    Current Node    |     Objective Bounds      |     Work
 Expl Unexpl |  Obj  Depth IntInf | Incumbent    BestBd   Gap | It/Node Time

     0     0 -54354.281    0  107 -5861.8746 -54354.281   827%     -    0s
H    0     0                    -8562.871821 -54354.281   535%     -    0s
H    0     0                    -53688.82683 -54354.281  1.24%     -    0s
H    0     0                    -53708.81963 -54354.281  1.20%     -    0s
     0     0     cutoff    0      -53708.820 -53708.820  0.00%     -    0s

Cutting planes:
  Flow cover: 1

Explored 1 nodes (329 simplex iterations) in 0.03 seconds
Thread count was 4 (of 4 available processors)

Solution count 4: -53708.8 -53688.8 -8562.87 -5861.87 

Optimal solution found (tolerance 1.00e-04)
Best objective -5.370881962864e+04, best bound -5.370881962864e+04, gap 0.0000%

Gurobi 7.5.2 (linux64) logging started Thu Mar 21 01:06:49 2019

Changed value of parameter LogFile to /home/aniket/python_scripts/Plasmids/exp/2019-03-21__iterative_with_questionable/output/sample_116/1.1.1/nplasmids_1/MILP/m.log
   Prev: gurobi.log  Default: 
Changed value of parameter TimeLimit to 2400.0
   Prev: 1e+100  Min: 0.0  Max: 1e+100  Default: 1e+100
Optimize a model with 2961 rows, 860 columns and 11497 nonzeros
Variable types: 229 continuous, 631 integer (327 binary)
Coefficient statistics:
  Matrix range     [1e-01, 1e+06]
  Objective range  [3e-04, 2e+05]
  Bounds range     [1e+00, 1e+00]
  RHS range        [1e-01, 1e+06]
Presolve removed 2336 rows and 495 columns
Presolve time: 0.02s
Presolved: 625 rows, 365 columns, 2063 nonzeros
Variable types: 77 continuous, 288 integer (212 binary)
Found heuristic solution: objective -2092.283136

Root relaxation: objective -5.041740e+03, 456 iterations, 0.00 seconds

    Nodes    |    Current Node    |     Objective Bounds      |     Work
 Expl Unexpl |  Obj  Depth IntInf | Incumbent    BestBd   Gap | It/Node Time

     0     0 -5041.7403    0   66 -2092.2831 -5041.7403   141%     -    0s
     0     0 -4590.1935    0   75 -2092.2831 -4590.1935   119%     -    0s
     0     0 -4232.7387    0   58 -2092.2831 -4232.7387   102%     -    0s
     0     0 -4227.9084    0   41 -2092.2831 -4227.9084   102%     -    0s
     0     0 -4226.9599    0   46 -2092.2831 -4226.9599   102%     -    0s
     0     0 -4226.6755    0   44 -2092.2831 -4226.6755   102%     -    0s
     0     0 -4148.2583    0   48 -2092.2831 -4148.2583  98.3%     -    0s
     0     0 -4130.5638    0   12 -2092.2831 -4130.5638  97.4%     -    0s
     0     0 -4126.7945    0   10 -2092.2831 -4126.7945  97.2%     -    0s
     0     0 -4096.6368    0   26 -2092.2831 -4096.6368  95.8%     -    0s
H    0     0                    -4030.307378 -4096.6368  1.65%     -    0s
     0     0 -4095.5182    0    7 -4030.3074 -4095.5182  1.62%     -    0s
     0     0 -4095.5182    0    5 -4030.3074 -4095.5182  1.62%     -    0s
     0     0 -4094.4878    0    5 -4030.3074 -4094.4878  1.59%     -    0s
H    0     0                    -4034.492083 -4094.4878  1.49%     -    0s
*    0     0               0    -4044.469278 -4044.4693  0.00%     -    0s

Explored 1 nodes (1143 simplex iterations) in 0.08 seconds
Thread count was 4 (of 4 available processors)

Solution count 4: -4044.47 -4034.49 -4030.31 -2092.28 
No other solutions better than -4044.47

Optimal solution found (tolerance 1.00e-04)
Best objective -4.044469278103e+03, best bound -4.044469278103e+03, gap 0.0000%
